55
1 2 3 7 9 10 14 18 35 41 43 101 113 142 156 279 366 532 1027 1515 144 176 304 594 1580 1695 63 175 659 1748 112 543 1386 124 166 663 1084 1302 1925 191 223 406 415 289 336 581 1778 202 1991 1965 961 1062 1396 1604 795
